p cnf 12 50 
-11 10 2 0
-10 11 1 0
-4 -2 -8 0
-10 4 6 0
12 6 1 0
7 9 6 0
-2 -1 6 0
-10 -7 -5 0
6 -11 1 0
11 12 -7 0
7 9 -5 0
-4 7 -11 0
-7 -12 4 0
5 -10 -1 0
-3 -1 -4 0
2 -6 9 0
-3 -6 10 0
8 6 -1 0
3 -6 -5 0
-8 7 5 0
2 -1 -10 0
-7 -5 4 0
10 -4 -9 0
-2 -8 11 0
2 1 5 0
4 2 -11 0
-5 10 -4 0
6 8 -7 0
-8 11 6 0
-1 -3 7 0
-11 9 10 0
2 5 -6 0
8 2 -4 0
-9 1 10 0
-10 8 6 0
4 -6 -3 0
3 1 -2 0
-7 2 -9 0
-9 10 3 0
4 -2 -6 0
-7 12 6 0
-12 -3 2 0
-8 1 -7 0
8 -7 9 0
11 -8 -5 0
-10 -5 12 0
10 -3 -8 0
3 5 -8 0
11 9 -12 0
-4 -1 2 0
